NAME: ./prFile/tspFile/tsp_file99.tsp
COMMENT: TSP file generated by Python
TYPE: TSP
DIMENSION: 40
EDGE_WEIGHT_TYPE: EUC_2D
NODE_COORD_SECTION
1 66 20
2 97 79
3 87 87
4 99 26
5 24 1
6 87 33
7 85 36
8 57 26
9 2 65
10 28 2
11 20 77
12 29 52
13 88 80
14 58 95
15 35 64
16 7 87
17 36 78
18 40 9
19 78 37
20 59 28
21 36 10
22 16 48
23 43 34
24 91 67
25 66 9
26 35 63
27 70 34
28 9 11
29 77 6
30 96 1
31 79 25
32 2 19
33 28 30
34 14 38
35 58 61
36 15 76
37 87 43
38 98 10
39 14 2
40 74 32
EOF
